0000000000000000
0000000000000000
0000000000000000
0000010001100000
0000011001100000
0000001000100000
0000011101000000
0000010110000000
0000010010000000
0000110001000000
0000110001100000
0000000000000000
0000000000000000
0000000000000000
0000000000000000
0000000000000000
